Minimize
  - y_0 - 10 y_1 - 6 y_2 - 9 y_3 - 10 y_4 - 4 y_5 - 6 y_6 - 3 y_7 - 7 y_8
   - 6 y_9 - 9 y_10 - 4 y_11 - 11 y_12 - 4 y_13 - 4 y_14 - y_15 - 13 y_16
   - 9 y_17 - 11 y_18 - 7 y_19 - 9 y_20 - 9 y_21 - 11 y_22 - 9 y_23
   - 11 y_24 - 4 y_25 - 5 y_26 - 7 y_27 - 10 y_28 - 5 y_29 - 9 y_30
   - 10 y_32 - 8 y_33 - 5 y_34 - 5 y_35 - 7 y_36 - 9 y_37 - 6 y_38 - 9 y_40
   - 13 y_41 - 9 y_42 - 5 y_43 - 3 y_44 - 8 y_45 - 9 y_46 - 7 y_47
   - 10 y_48 - 7 y_49 + 46 x_0_4 + 30 x_0_8 + 41 x_0_10 + 21 x_0_14
   + 51 x_0_23 + 31 x_0_34 + 41 x_0_36 + 26 x_0_38 + 22 x_0_43 + 19 x_0_44
   + 30 x_0_47 + 30 x_0_49 + 84 x_1_2 + 32 x_1_6 + 38 x_1_7 + 18 x_1_8
   + 54 x_1_10 + 87 x_1_17 + 73 x_1_26 + 28 x_1_28 + 68 x_1_32 + 77 x_1_34
   + 98 x_1_37 + 53 x_1_39 + 81 x_1_40 + 25 x_1_47 + 101 x_1_48 + 67 x_2_3
   + 55 x_2_4 + 15 x_2_5 + 58 x_2_6 + 66 x_2_8 + 34 x_2_16 + 55 x_2_19
   + 20 x_2_26 + 7 x_2_34 + 51 x_2_35 + 29 x_2_36 + 62 x_2_38 + 42 x_2_46
   + 68 x_2_47 + 53 x_2_49 + 27 x_3_4 + 52 x_3_5 + 59 x_3_6 + 102 x_3_12
   + 43 x_3_14 + 88 x_3_17 + 13 x_3_19 + 50 x_3_21 + 73 x_3_27 + 71 x_3_30
   + 16 x_3_32 + 46 x_3_39 + 58 x_3_42 + 76 x_3_45 + 92 x_3_46 + 67 x_4_8
   + 53 x_4_13 + 36 x_4_14 + 101 x_4_18 + 102 x_4_22 + 87 x_4_30
   + 49 x_4_31 + 12 x_4_32 + 34 x_4_33 + 64 x_4_37 + 48 x_4_39 + 36 x_4_42
   + 91 x_4_46 + 46 x_5_9 + 23 x_5_11 + 61 x_5_12 + 59 x_5_18 + 57 x_5_20
   + 44 x_5_29 + 65 x_5_30 + 34 x_5_36 + 19 x_5_39 + 84 x_5_41 + 24 x_5_45
   + 54 x_5_47 + 47 x_6_14 + 33 x_6_15 + 92 x_6_16 + 32 x_6_22 + 44 x_6_25
   + 57 x_6_27 + 71 x_6_37 + 10 x_6_38 + 30 x_6_39 + 49 x_6_40 + 24 x_7_8
   + 18 x_7_11 + 60 x_7_17 + 70 x_7_18 + 29 x_7_20 + 53 x_7_24 + 43 x_7_26
   + 51 x_7_27 + 17 x_7_29 + 51 x_7_36 + 18 x_7_39 + 60 x_7_40 + 56 x_7_45
   + 42 x_8_11 + 69 x_8_12 + 38 x_8_15 + 74 x_8_23 + 67 x_8_27 + 22 x_8_30
   + 61 x_8_32 + 40 x_8_33 + 60 x_8_34 + 33 x_8_35 + 6 x_8_38 + 64 x_8_40
   + 77 x_8_42 + 66 x_8_46 + 36 x_9_15 + 81 x_9_16 + 46 x_9_23 + 30 x_9_24
   + 46 x_9_27 + 29 x_9_29 + 30 x_9_30 + 45 x_9_34 + 28 x_9_36 + 33 x_9_39
   + 47 x_9_44 + 54 x_9_47 + 29 x_10_11 + 39 x_10_13 + 43 x_10_14
   + 13 x_10_19 + 72 x_10_28 + 48 x_10_29 + 71 x_10_30 + 46 x_10_31
   + 61 x_10_34 + 22 x_10_35 + 52 x_10_38 + 47 x_10_43 + 76 x_10_45
   + 92 x_10_46 + 14 x_10_49 + 27 x_11_13 + 17 x_11_15 + 59 x_11_17
   + 34 x_11_20 + 31 x_11_21 + 73 x_11_22 + 30 x_11_32 + 51 x_11_36
   + 14 x_11_44 + 78 x_12_16 + 88 x_12_21 + 53 x_12_24 + 47 x_12_25
   + 38 x_12_26 + 59 x_12_30 + 105 x_12_32 + 56 x_12_34 + 62 x_12_37
   + 57 x_12_39 + 67 x_12_44 + 23 x_13_15 + 67 x_13_18 + 32 x_13_20
   + 52 x_13_22 + 55 x_13_27 + 36 x_13_28 + 9 x_13_29 + 48 x_13_32
   + 20 x_13_35 + 67 x_13_37 + 15 x_13_38 + 62 x_13_42 + 59 x_13_45
   + 14 x_14_15 + 54 x_14_16 + 47 x_14_17 + 31 x_14_19 + 73 x_14_22
   + 30 x_14_27 + 41 x_14_29 + 64 x_14_30 + 37 x_14_37 + 43 x_14_43
   + 2 x_14_44 + 33 x_14_45 + 37 x_14_48 + 63 x_15_16 + 32 x_15_19
   + 39 x_15_21 + 26 x_15_26 + 50 x_15_30 + 42 x_15_33 + 67 x_15_41
   + 48 x_15_46 + 32 x_15_49 + 49 x_16_17 + 102 x_16_20 + 105 x_16_22
   + 38 x_16_23 + 35 x_16_27 + 66 x_16_31 + 96 x_16_33 + 41 x_16_34
   + 55 x_16_36 + 20 x_16_37 + 55 x_16_44 + 100 x_16_47 + 17 x_16_48
   + 63 x_17_21 + 59 x_17_29 + 68 x_17_30 + 96 x_17_41 + 14 x_17_46
   + 79 x_17_47 + 85 x_18_21 + 44 x_18_22 + 64 x_18_28 + 25 x_18_36
   + 55 x_18_39 + 91 x_18_41 + 64 x_18_44 + 85 x_18_47 + 43 x_19_21
   + 80 x_19_22 + 50 x_19_25 + 58 x_19_26 + 61 x_19_27 + 37 x_19_29
   + 20 x_19_32 + 9 x_19_35 + 63 x_19_41 + 37 x_19_43 + 31 x_19_44
   + 6 x_19_49 + 65 x_20_25 + 30 x_20_32 + 85 x_20_37 + 42 x_20_38
   + 46 x_20_39 + 68 x_20_42 + 85 x_20_48 + 23 x_20_49 + 97 x_21_24
   + 41 x_21_25 + 64 x_21_29 + 89 x_21_30 + 54 x_21_33 + 31 x_21_34
   + 71 x_21_38 + 66 x_21_43 + 65 x_21_47 + 38 x_21_49 + 27 x_22_28
   + 71 x_22_34 + 71 x_22_35 + 86 x_22_37 + 56 x_22_39 + 54 x_22_41
   + 92 x_22_48 + 76 x_23_24 + 79 x_23_28 + 45 x_23_31 + 85 x_23_33
   + 27 x_23_34 + 18 x_23_36 + 69 x_23_38 + 81 x_23_47 + 64 x_24_25
   + 13 x_24_30 + 53 x_24_31 + 32 x_24_38 + 57 x_24_46 + 63 x_25_28
   + 21 x_25_31 + 20 x_25_36 + 28 x_25_37 + 48 x_25_38 + 20 x_25_39
   + 32 x_25_40 + 82 x_25_41 + 39 x_25_42 + 21 x_25_44 + 19 x_25_45
   + 58 x_25_47 + 71 x_26_32 + 68 x_26_33 + 10 x_26_36 + 50 x_26_38
   + 47 x_26_42 + 30 x_26_44 + 63 x_26_47 + 57 x_26_49 + 22 x_27_36
   + 15 x_27_37 + 96 x_27_41 + 59 x_27_43 + 30 x_27_44 + 83 x_28_32
   + 71 x_28_34 + 55 x_28_35 + 62 x_28_40 + 94 x_28_42 + 65 x_28_44
   + 81 x_28_45 + 43 x_28_47 + 57 x_29_32 + 29 x_29_35 + 48 x_29_36
   + 68 x_29_42 + 61 x_29_45 + 56 x_29_46 + 73 x_29_48 + 87 x_30_37
   + 20 x_30_38 + 91 x_30_42 + 78 x_30_45 + 60 x_30_46 + 66 x_30_49
   + 42 x_31_33 + 30 x_31_38 + 45 x_31_40 + 26 x_31_43 + 50 x_31_48
   + 34 x_31_49 + 57 x_32_34 + 49 x_32_39 + 81 x_32_41 + 47 x_32_42
   + 70 x_32_48 + 61 x_33_42 + 88 x_33_46 + 20 x_33_47 + 52 x_34_43
   + 15 x_34_45 + 61 x_34_47 + 58 x_35_41 + 13 x_35_49 + 34 x_36_39
   + 13 x_36_40 + 14 x_36_46 + 10 x_37_45 + 47 x_37_46 + 82 x_37_47
   + 8 x_37_48 + 80 x_38_48 + 44 x_39_42 + 15 x_39_44 + 38 x_39_45
   + 48 x_39_48 + 70 x_40_42 + 58 x_40_43 + 37 x_41_43 + 77 x_41_44
   + 101 x_41_45 + 39 x_41_47 + 35 x_42_45 + 22 x_43_47 + 76 x_43_48
   + 42 x_43_49 + 37 x_45_46 + 62 x_45_49 + 80 x_46_49 + 354 Constant
Subject To
 c_0: y_8 = 1
 c_1_0: y_0 + y_15 + y_31 + y_39 >= 1
 c_1_1: y_1 >= 1
 c_1_2: y_2 + y_27 + y_34 + y_45 >= 1
 c_1_3: y_3 + y_10 + y_33 >= 1
 c_1_4: y_4 >= 1
 c_1_5: y_5 + y_14 + y_34 + y_44 >= 1
 c_1_6: y_6 + y_38 >= 1
 c_1_7: y_7 + y_13 >= 1
 c_1_8: y_8 + y_38 + y_43 >= 1
 c_1_9: y_9 >= 1
 c_1_10: y_3 + y_10 + y_33 >= 1
 c_1_11: y_11 >= 1
 c_1_12: y_12 + y_18 >= 1
 c_1_13: y_7 + y_13 + y_29 + y_43 >= 1
 c_1_14: y_5 + y_14 + y_44 >= 1
 c_1_15: y_0 + y_15 + y_31 + y_39 >= 1
 c_1_16: y_16 >= 1
 c_1_17: y_17 + y_36 >= 1
 c_1_18: y_12 + y_18 >= 1
 c_1_19: y_19 + y_35 + y_49 >= 1
 c_1_20: y_20 + y_33 >= 1
 c_1_21: y_21 + y_42 >= 1
 c_1_22: y_22 >= 1
 c_1_23: y_23 >= 1
 c_1_24: y_24 >= 1
 c_1_25: y_25 + y_26 >= 1
 c_1_26: y_25 + y_26 + y_36 >= 1
 c_1_27: y_2 + y_27 + y_45 >= 1
 c_1_28: y_28 + y_30 >= 1
 c_1_29: y_13 + y_29 + y_38 + y_43 >= 1
 c_1_30: y_28 + y_30 >= 1
 c_1_31: y_0 + y_15 + y_31 + y_39 >= 1
 c_1_32: y_32 >= 1
 c_1_33: y_3 + y_10 + y_20 + y_33 >= 1
 c_1_34: y_2 + y_5 + y_34 >= 1
 c_1_35: y_19 + y_35 >= 1
 c_1_36: y_17 + y_26 + y_36 >= 1
 c_1_37: y_37 + y_45 + y_48 >= 1
 c_1_38: y_6 + y_8 + y_29 + y_38 + y_43 >= 1
 c_1_39: y_0 + y_15 + y_31 + y_39 >= 1
 c_1_40: y_40 + y_46 >= 1
 c_1_41: y_41 >= 1
 c_1_42: y_21 + y_42 >= 1
 c_1_43: y_8 + y_13 + y_29 + y_38 + y_43 >= 1
 c_1_44: y_5 + y_14 + y_44 >= 1
 c_1_45: y_2 + y_27 + y_37 + y_45 >= 1
 c_1_46: y_40 + y_46 >= 1
 c_1_47: y_47 >= 1
 c_1_48: y_37 + y_48 >= 1
 c_1_49: y_19 + y_49 >= 1
 c_2_0: - 2 y_0 + x_0_4 + x_0_8 + x_0_10 + x_0_14 + x_0_23 + x_0_34
   + x_0_36 + x_0_38 + x_0_43 + x_0_44 + x_0_47 + x_0_49 = 0
 c_2_1: - 2 y_1 + x_1_2 + x_1_6 + x_1_7 + x_1_8 + x_1_10 + x_1_17 + x_1_26
   + x_1_28 + x_1_32 + x_1_34 + x_1_37 + x_1_39 + x_1_40 + x_1_47 + x_1_48
   = 0
 c_2_2: - 2 y_2 + x_1_2 + x_2_3 + x_2_4 + x_2_5 + x_2_6 + x_2_8 + x_2_16
   + x_2_19 + x_2_26 + x_2_34 + x_2_35 + x_2_36 + x_2_38 + x_2_46 + x_2_47
   + x_2_49 = 0
 c_2_3: - 2 y_3 + x_2_3 + x_3_4 + x_3_5 + x_3_6 + x_3_12 + x_3_14 + x_3_17
   + x_3_19 + x_3_21 + x_3_27 + x_3_30 + x_3_32 + x_3_39 + x_3_42 + x_3_45
   + x_3_46 = 0
 c_2_4: - 2 y_4 + x_0_4 + x_2_4 + x_3_4 + x_4_8 + x_4_13 + x_4_14 + x_4_18
   + x_4_22 + x_4_30 + x_4_31 + x_4_32 + x_4_33 + x_4_37 + x_4_39 + x_4_42
   + x_4_46 = 0
 c_2_5: - 2 y_5 + x_2_5 + x_3_5 + x_5_9 + x_5_11 + x_5_12 + x_5_18 + x_5_20
   + x_5_29 + x_5_30 + x_5_36 + x_5_39 + x_5_41 + x_5_45 + x_5_47 = 0
 c_2_6: - 2 y_6 + x_1_6 + x_2_6 + x_3_6 + x_6_14 + x_6_15 + x_6_16 + x_6_22
   + x_6_25 + x_6_27 + x_6_37 + x_6_38 + x_6_39 + x_6_40 = 0
 c_2_7: - 2 y_7 + x_1_7 + x_7_8 + x_7_11 + x_7_17 + x_7_18 + x_7_20
   + x_7_24 + x_7_26 + x_7_27 + x_7_29 + x_7_36 + x_7_39 + x_7_40 + x_7_45
   = 0
 c_2_8: - 2 y_8 + x_0_8 + x_1_8 + x_2_8 + x_4_8 + x_7_8 + x_8_11 + x_8_12
   + x_8_15 + x_8_23 + x_8_27 + x_8_30 + x_8_32 + x_8_33 + x_8_34 + x_8_35
   + x_8_38 + x_8_40 + x_8_42 + x_8_46 = 0
 c_2_9: - 2 y_9 + x_5_9 + x_9_15 + x_9_16 + x_9_23 + x_9_24 + x_9_27
   + x_9_29 + x_9_30 + x_9_34 + x_9_36 + x_9_39 + x_9_44 + x_9_47 = 0
 c_2_10: - 2 y_10 + x_0_10 + x_1_10 + x_10_11 + x_10_13 + x_10_14 + x_10_19
   + x_10_28 + x_10_29 + x_10_30 + x_10_31 + x_10_34 + x_10_35 + x_10_38
   + x_10_43 + x_10_45 + x_10_46 + x_10_49 = 0
 c_2_11: - 2 y_11 + x_5_11 + x_7_11 + x_8_11 + x_10_11 + x_11_13 + x_11_15
   + x_11_17 + x_11_20 + x_11_21 + x_11_22 + x_11_32 + x_11_36 + x_11_44
   = 0
 c_2_12: - 2 y_12 + x_3_12 + x_5_12 + x_8_12 + x_12_16 + x_12_21 + x_12_24
   + x_12_25 + x_12_26 + x_12_30 + x_12_32 + x_12_34 + x_12_37 + x_12_39
   + x_12_44 = 0
 c_2_13: - 2 y_13 + x_4_13 + x_10_13 + x_11_13 + x_13_15 + x_13_18
   + x_13_20 + x_13_22 + x_13_27 + x_13_28 + x_13_29 + x_13_32 + x_13_35
   + x_13_37 + x_13_38 + x_13_42 + x_13_45 = 0
 c_2_14: - 2 y_14 + x_0_14 + x_3_14 + x_4_14 + x_6_14 + x_10_14 + x_14_15
   + x_14_16 + x_14_17 + x_14_19 + x_14_22 + x_14_27 + x_14_29 + x_14_30
   + x_14_37 + x_14_43 + x_14_44 + x_14_45 + x_14_48 = 0
 c_2_15: - 2 y_15 + x_6_15 + x_8_15 + x_9_15 + x_11_15 + x_13_15 + x_14_15
   + x_15_16 + x_15_19 + x_15_21 + x_15_26 + x_15_30 + x_15_33 + x_15_41
   + x_15_46 + x_15_49 = 0
 c_2_16: - 2 y_16 + x_2_16 + x_6_16 + x_9_16 + x_12_16 + x_14_16 + x_15_16
   + x_16_17 + x_16_20 + x_16_22 + x_16_23 + x_16_27 + x_16_31 + x_16_33
   + x_16_34 + x_16_36 + x_16_37 + x_16_44 + x_16_47 + x_16_48 = 0
 c_2_17: - 2 y_17 + x_1_17 + x_3_17 + x_7_17 + x_11_17 + x_14_17 + x_16_17
   + x_17_21 + x_17_29 + x_17_30 + x_17_41 + x_17_46 + x_17_47 = 0
 c_2_18: - 2 y_18 + x_4_18 + x_5_18 + x_7_18 + x_13_18 + x_18_21 + x_18_22
   + x_18_28 + x_18_36 + x_18_39 + x_18_41 + x_18_44 + x_18_47 = 0
 c_2_19: - 2 y_19 + x_2_19 + x_3_19 + x_10_19 + x_14_19 + x_15_19 + x_19_21
   + x_19_22 + x_19_25 + x_19_26 + x_19_27 + x_19_29 + x_19_32 + x_19_35
   + x_19_41 + x_19_43 + x_19_44 + x_19_49 = 0
 c_2_20: - 2 y_20 + x_5_20 + x_7_20 + x_11_20 + x_13_20 + x_16_20 + x_20_25
   + x_20_32 + x_20_37 + x_20_38 + x_20_39 + x_20_42 + x_20_48 + x_20_49
   = 0
 c_2_21: - 2 y_21 + x_3_21 + x_11_21 + x_12_21 + x_15_21 + x_17_21
   + x_18_21 + x_19_21 + x_21_24 + x_21_25 + x_21_29 + x_21_30 + x_21_33
   + x_21_34 + x_21_38 + x_21_43 + x_21_47 + x_21_49 = 0
 c_2_22: - 2 y_22 + x_4_22 + x_6_22 + x_11_22 + x_13_22 + x_14_22 + x_16_22
   + x_18_22 + x_19_22 + x_22_28 + x_22_34 + x_22_35 + x_22_37 + x_22_39
   + x_22_41 + x_22_48 = 0
 c_2_23: - 2 y_23 + x_0_23 + x_8_23 + x_9_23 + x_16_23 + x_23_24 + x_23_28
   + x_23_31 + x_23_33 + x_23_34 + x_23_36 + x_23_38 + x_23_47 = 0
 c_2_24: - 2 y_24 + x_7_24 + x_9_24 + x_12_24 + x_21_24 + x_23_24 + x_24_25
   + x_24_30 + x_24_31 + x_24_38 + x_24_46 = 0
 c_2_25: - 2 y_25 + x_6_25 + x_12_25 + x_19_25 + x_20_25 + x_21_25
   + x_24_25 + x_25_28 + x_25_31 + x_25_36 + x_25_37 + x_25_38 + x_25_39
   + x_25_40 + x_25_41 + x_25_42 + x_25_44 + x_25_45 + x_25_47 = 0
 c_2_26: - 2 y_26 + x_1_26 + x_2_26 + x_7_26 + x_12_26 + x_15_26 + x_19_26
   + x_26_32 + x_26_33 + x_26_36 + x_26_38 + x_26_42 + x_26_44 + x_26_47
   + x_26_49 = 0
 c_2_27: - 2 y_27 + x_3_27 + x_6_27 + x_7_27 + x_8_27 + x_9_27 + x_13_27
   + x_14_27 + x_16_27 + x_19_27 + x_27_36 + x_27_37 + x_27_41 + x_27_43
   + x_27_44 = 0
 c_2_28: - 2 y_28 + x_1_28 + x_10_28 + x_13_28 + x_18_28 + x_22_28
   + x_23_28 + x_25_28 + x_28_32 + x_28_34 + x_28_35 + x_28_40 + x_28_42
   + x_28_44 + x_28_45 + x_28_47 = 0
 c_2_29: - 2 y_29 + x_5_29 + x_7_29 + x_9_29 + x_10_29 + x_13_29 + x_14_29
   + x_17_29 + x_19_29 + x_21_29 + x_29_32 + x_29_35 + x_29_36 + x_29_42
   + x_29_45 + x_29_46 + x_29_48 = 0
 c_2_30: - 2 y_30 + x_3_30 + x_4_30 + x_5_30 + x_8_30 + x_9_30 + x_10_30
   + x_12_30 + x_14_30 + x_15_30 + x_17_30 + x_21_30 + x_24_30 + x_30_37
   + x_30_38 + x_30_42 + x_30_45 + x_30_46 + x_30_49 = 0
 c_2_31: - 2 y_31 + x_4_31 + x_10_31 + x_16_31 + x_23_31 + x_24_31
   + x_25_31 + x_31_33 + x_31_38 + x_31_40 + x_31_43 + x_31_48 + x_31_49
   = 0
 c_2_32: - 2 y_32 + x_1_32 + x_3_32 + x_4_32 + x_8_32 + x_11_32 + x_12_32
   + x_13_32 + x_19_32 + x_20_32 + x_26_32 + x_28_32 + x_29_32 + x_32_34
   + x_32_39 + x_32_41 + x_32_42 + x_32_48 = 0
 c_2_33: - 2 y_33 + x_4_33 + x_8_33 + x_15_33 + x_16_33 + x_21_33 + x_23_33
   + x_26_33 + x_31_33 + x_33_42 + x_33_46 + x_33_47 = 0
 c_2_34: - 2 y_34 + x_0_34 + x_1_34 + x_2_34 + x_8_34 + x_9_34 + x_10_34
   + x_12_34 + x_16_34 + x_21_34 + x_22_34 + x_23_34 + x_28_34 + x_32_34
   + x_34_43 + x_34_45 + x_34_47 = 0
 c_2_35: - 2 y_35 + x_2_35 + x_8_35 + x_10_35 + x_13_35 + x_19_35 + x_22_35
   + x_28_35 + x_29_35 + x_35_41 + x_35_49 = 0
 c_2_36: - 2 y_36 + x_0_36 + x_2_36 + x_5_36 + x_7_36 + x_9_36 + x_11_36
   + x_16_36 + x_18_36 + x_23_36 + x_25_36 + x_26_36 + x_27_36 + x_29_36
   + x_36_39 + x_36_40 + x_36_46 = 0
 c_2_37: - 2 y_37 + x_1_37 + x_4_37 + x_6_37 + x_12_37 + x_13_37 + x_14_37
   + x_16_37 + x_20_37 + x_22_37 + x_25_37 + x_27_37 + x_30_37 + x_37_45
   + x_37_46 + x_37_47 + x_37_48 = 0
 c_2_38: - 2 y_38 + x_0_38 + x_2_38 + x_6_38 + x_8_38 + x_10_38 + x_13_38
   + x_20_38 + x_21_38 + x_23_38 + x_24_38 + x_25_38 + x_26_38 + x_30_38
   + x_31_38 + x_38_48 = 0
 c_2_39: - 2 y_39 + x_1_39 + x_3_39 + x_4_39 + x_5_39 + x_6_39 + x_7_39
   + x_9_39 + x_12_39 + x_18_39 + x_20_39 + x_22_39 + x_25_39 + x_32_39
   + x_36_39 + x_39_42 + x_39_44 + x_39_45 + x_39_48 = 0
 c_2_40: - 2 y_40 + x_1_40 + x_6_40 + x_7_40 + x_8_40 + x_25_40 + x_28_40
   + x_31_40 + x_36_40 + x_40_42 + x_40_43 = 0
 c_2_41: - 2 y_41 + x_5_41 + x_15_41 + x_17_41 + x_18_41 + x_19_41
   + x_22_41 + x_25_41 + x_27_41 + x_32_41 + x_35_41 + x_41_43 + x_41_44
   + x_41_45 + x_41_47 = 0
 c_2_42: - 2 y_42 + x_3_42 + x_4_42 + x_8_42 + x_13_42 + x_20_42 + x_25_42
   + x_26_42 + x_28_42 + x_29_42 + x_30_42 + x_32_42 + x_33_42 + x_39_42
   + x_40_42 + x_42_45 = 0
 c_2_43: - 2 y_43 + x_0_43 + x_10_43 + x_14_43 + x_19_43 + x_21_43
   + x_27_43 + x_31_43 + x_34_43 + x_40_43 + x_41_43 + x_43_47 + x_43_48
   + x_43_49 = 0
 c_2_44: - 2 y_44 + x_0_44 + x_9_44 + x_11_44 + x_12_44 + x_14_44 + x_16_44
   + x_18_44 + x_19_44 + x_25_44 + x_26_44 + x_27_44 + x_28_44 + x_39_44
   + x_41_44 = 0
 c_2_45: - 2 y_45 + x_3_45 + x_5_45 + x_7_45 + x_10_45 + x_13_45 + x_14_45
   + x_25_45 + x_28_45 + x_29_45 + x_30_45 + x_34_45 + x_37_45 + x_39_45
   + x_41_45 + x_42_45 + x_45_46 + x_45_49 = 0
 c_2_46: - 2 y_46 + x_2_46 + x_3_46 + x_4_46 + x_8_46 + x_10_46 + x_15_46
   + x_17_46 + x_24_46 + x_29_46 + x_30_46 + x_33_46 + x_36_46 + x_37_46
   + x_45_46 + x_46_49 = 0
 c_2_47: - 2 y_47 + x_0_47 + x_1_47 + x_2_47 + x_5_47 + x_9_47 + x_16_47
   + x_17_47 + x_18_47 + x_21_47 + x_23_47 + x_25_47 + x_26_47 + x_28_47
   + x_33_47 + x_34_47 + x_37_47 + x_41_47 + x_43_47 = 0
 c_2_48: - 2 y_48 + x_1_48 + x_14_48 + x_16_48 + x_20_48 + x_22_48
   + x_29_48 + x_31_48 + x_32_48 + x_37_48 + x_38_48 + x_39_48 + x_43_48
   = 0
 c_2_49: - 2 y_49 + x_0_49 + x_2_49 + x_10_49 + x_15_49 + x_19_49 + x_20_49
   + x_21_49 + x_26_49 + x_30_49 + x_31_49 + x_35_49 + x_43_49 + x_45_49
   + x_46_49 = 0
Bounds
 Constant = 1
Binaries
 y_0 y_1 y_2 y_3 y_4 y_5 y_6 y_7 y_8 y_9 y_10 y_11 y_12 y_13 y_14 y_15 y_16
 y_17 y_18 y_19 y_20 y_21 y_22 y_23 y_24 y_25 y_26 y_27 y_28 y_29 y_30 y_31
 y_32 y_33 y_34 y_35 y_36 y_37 y_38 y_39 y_40 y_41 y_42 y_43 y_44 y_45 y_46
 y_47 y_48 y_49 x_0_4 x_0_8 x_0_10 x_0_14 x_0_23 x_0_34 x_0_36 x_0_38
 x_0_43 x_0_44 x_0_47 x_0_49 x_1_2 x_1_6 x_1_7 x_1_8 x_1_10 x_1_17 x_1_26
 x_1_28 x_1_32 x_1_34 x_1_37 x_1_39 x_1_40 x_1_47 x_1_48 x_2_3 x_2_4 x_2_5
 x_2_6 x_2_8 x_2_16 x_2_19 x_2_26 x_2_34 x_2_35 x_2_36 x_2_38 x_2_46 x_2_47
 x_2_49 x_3_4 x_3_5 x_3_6 x_3_12 x_3_14 x_3_17 x_3_19 x_3_21 x_3_27 x_3_30
 x_3_32 x_3_39 x_3_42 x_3_45 x_3_46 x_4_8 x_4_13 x_4_14 x_4_18 x_4_22
 x_4_30 x_4_31 x_4_32 x_4_33 x_4_37 x_4_39 x_4_42 x_4_46 x_5_9 x_5_11
 x_5_12 x_5_18 x_5_20 x_5_29 x_5_30 x_5_36 x_5_39 x_5_41 x_5_45 x_5_47
 x_6_14 x_6_15 x_6_16 x_6_22 x_6_25 x_6_27 x_6_37 x_6_38 x_6_39 x_6_40
 x_7_8 x_7_11 x_7_17 x_7_18 x_7_20 x_7_24 x_7_26 x_7_27 x_7_29 x_7_36
 x_7_39 x_7_40 x_7_45 x_8_11 x_8_12 x_8_15 x_8_23 x_8_27 x_8_30 x_8_32
 x_8_33 x_8_34 x_8_35 x_8_38 x_8_40 x_8_42 x_8_46 x_9_15 x_9_16 x_9_23
 x_9_24 x_9_27 x_9_29 x_9_30 x_9_34 x_9_36 x_9_39 x_9_44 x_9_47 x_10_11
 x_10_13 x_10_14 x_10_19 x_10_28 x_10_29 x_10_30 x_10_31 x_10_34 x_10_35
 x_10_38 x_10_43 x_10_45 x_10_46 x_10_49 x_11_13 x_11_15 x_11_17 x_11_20
 x_11_21 x_11_22 x_11_32 x_11_36 x_11_44 x_12_16 x_12_21 x_12_24 x_12_25
 x_12_26 x_12_30 x_12_32 x_12_34 x_12_37 x_12_39 x_12_44 x_13_15 x_13_18
 x_13_20 x_13_22 x_13_27 x_13_28 x_13_29 x_13_32 x_13_35 x_13_37 x_13_38
 x_13_42 x_13_45 x_14_15 x_14_16 x_14_17 x_14_19 x_14_22 x_14_27 x_14_29
 x_14_30 x_14_37 x_14_43 x_14_44 x_14_45 x_14_48 x_15_16 x_15_19 x_15_21
 x_15_26 x_15_30 x_15_33 x_15_41 x_15_46 x_15_49 x_16_17 x_16_20 x_16_22
 x_16_23 x_16_27 x_16_31 x_16_33 x_16_34 x_16_36 x_16_37 x_16_44 x_16_47
 x_16_48 x_17_21 x_17_29 x_17_30 x_17_41 x_17_46 x_17_47 x_18_21 x_18_22
 x_18_28 x_18_36 x_18_39 x_18_41 x_18_44 x_18_47 x_19_21 x_19_22 x_19_25
 x_19_26 x_19_27 x_19_29 x_19_32 x_19_35 x_19_41 x_19_43 x_19_44 x_19_49
 x_20_25 x_20_32 x_20_37 x_20_38 x_20_39 x_20_42 x_20_48 x_20_49 x_21_24
 x_21_25 x_21_29 x_21_30 x_21_33 x_21_34 x_21_38 x_21_43 x_21_47 x_21_49
 x_22_28 x_22_34 x_22_35 x_22_37 x_22_39 x_22_41 x_22_48 x_23_24 x_23_28
 x_23_31 x_23_33 x_23_34 x_23_36 x_23_38 x_23_47 x_24_25 x_24_30 x_24_31
 x_24_38 x_24_46 x_25_28 x_25_31 x_25_36 x_25_37 x_25_38 x_25_39 x_25_40
 x_25_41 x_25_42 x_25_44 x_25_45 x_25_47 x_26_32 x_26_33 x_26_36 x_26_38
 x_26_42 x_26_44 x_26_47 x_26_49 x_27_36 x_27_37 x_27_41 x_27_43 x_27_44
 x_28_32 x_28_34 x_28_35 x_28_40 x_28_42 x_28_44 x_28_45 x_28_47 x_29_32
 x_29_35 x_29_36 x_29_42 x_29_45 x_29_46 x_29_48 x_30_37 x_30_38 x_30_42
 x_30_45 x_30_46 x_30_49 x_31_33 x_31_38 x_31_40 x_31_43 x_31_48 x_31_49
 x_32_34 x_32_39 x_32_41 x_32_42 x_32_48 x_33_42 x_33_46 x_33_47 x_34_43
 x_34_45 x_34_47 x_35_41 x_35_49 x_36_39 x_36_40 x_36_46 x_37_45 x_37_46
 x_37_47 x_37_48 x_38_48 x_39_42 x_39_44 x_39_45 x_39_48 x_40_42 x_40_43
 x_41_43 x_41_44 x_41_45 x_41_47 x_42_45 x_43_47 x_43_48 x_43_49 x_45_46
 x_45_49 x_46_49
End
